units           metal
dimension       3
boundary        p p p
atom_style      atomic

read_data ../../sample/data.quartz
replicate 6 6 6

pair_style mlip load_from=../../sample/sample.almtp extrapolation_control=true extrapolation_control:threshold_break=10 extrapolation_control:threshold_save=0.5 extrapolation_control:save_extrapolative_to=preselected.cfg
pair_coeff      * *

run 0
velocity all create 300.0 12345 mom yes rot yes
fix 1 all nve
run 100