units           metal
dimension       3
boundary        p p p
atom_style      atomic

read_data ../../../sample/data.quartz
replicate 6 6 6

pair_style mtp ../../../sample/sample.almtp
pair_coeff      * *

run 0
velocity all create 300.0 12345 mom yes rot yes
fix 1 all nve
run 100